52
150
105	1
104	1
103	2
102	1
101	2
100	1
99	1
97	2
96	4
95	2
93	1
91	4
89	1
88	1
87	3
85	1
84	5
83	3
82	2
81	3
80	1
79	2
78	2
77	2
76	4
75	1
74	2
73	1
72	1
71	1
69	1
65	3
64	1
60	2
59	1
58	1
55	1
54	2
53	3
51	5
50	2
48	2
46	1
44	2
43	2
41	1
40	3
39	2
37	2
34	2
33	2
30	1
